W = 9;
H = 5;

cost = array2d(1..H,1..W,[5 | r in 1..H, c in 1..W]);
reward = [| 3,2,1,0,0,0,1,3,5
          | 0,0,4,0,0,0,5,0,0
          | 2,0,0,-1,0,-1,0,0,2
          | 0,0,3,0,0,0,2,0,0
          | 2,4,4,0,0,0,1,1,4
          |];

limit = 8; 
budget = 40;                  
          